c array.sh: path:     /data/cnf/sc2022/main/Wallace_Bits_Fast_7.cnf.cnf.xz
c array.sh: name:     Wallace_Bits_Fast_7.cnf
c array.sh: task:     96
c array.sh: host:     c3n06
c array.sh: uname:    Linux c3n06 5.4.0-166-generic #183-Ubuntu SMP Mon Oct 2 11:28:33 UTC 2023 x86_64 x86_64 x86_64 GNU/Linux
c array.sh: start:    Fri 24 Nov 2023 02:37:40 PM CET
c array.sh: noturbo:  1
c array.sh: governor: 32 performance
c array.sh: tmp:      1%
c array.sh: unzipped: /tmp/local-unzipped-24715725-96-Wallace_Bits_Fast_7.cnf.cnf
c --- [ banner ] -------------------------------------------------------------
c 
c CaDiCaL SAT Solver
c Copyright (c) 2016-2023 A. Biere, M. Fleury, N. Froleyks, K. Fazekas, F. Pollitt
c 
c Version 1.9.0+vivify+0j 3637700f13e5f86519137ce8e91672ec524e8d4d
c g++ (Ubuntu 9.4.0-1ubuntu1~20.04.2) 9.4.0 -Wall -Wextra -O3 -DNDEBUG
c Fri 24 Nov 2023 02:37:08 PM CET Linux cluster3 5.4.0-166-generic x86_64
c 
c --- [ parsing input ] ------------------------------------------------------
c 
c reading DIMACS file from '/tmp/local-unzipped-24715725-96-Wallace_Bits_Fast_7.cnf.cnf'
c opening file to read '/tmp/local-unzipped-24715725-96-Wallace_Bits_Fast_7.cnf.cnf'
c found 'p cnf 15479 61596' header
c parsed 61596 clauses in 0.03 seconds process time
c 
c --- [ options ] ------------------------------------------------------------
c 
c   --profile=4                    (different from default '2')
c 
c --- [ solving ] ------------------------------------------------------------
c 
c time measured in process time since initialization
c 
c  seconds  reductions  redundant  irredundant
c         MB    restarts       trail      variables
c          level   conflicts       glue        remaining
c 
c *  0.03 12  0 0   0    0    0  0% 0 61488 15371 99%
c {  0.04 14  0 0   0    0    0  0% 0 61488 15371 99%
c i  0.04 14 70 0   0    3    1  2% 0 61487 15370 99%
c i  0.04 14 74 0   0    6    2  2% 0 61486 15369 99%
c i  0.04 14 76 0   0    9    3  2% 0 61485 15368 99%
c i  0.04 14 78 0   0   12    4  2% 0 61484 15367 99%
c i  0.04 14 79 0   0   15    5  2% 0 61483 15366 99%
c i  0.04 14 80 0   0   18    6  2% 0 61482 15365 99%
c i  0.04 14 82 0   0   21    7  2% 0 61481 15364 99%
c i  0.04 14 83 0   0   24    8  2% 0 61480 15363 99%
c i  0.04 14 84 0   0   27    9  2% 0 61479 15362 99%
c i  0.04 14 85 0   0   30   10  2% 0 61478 15361 99%
c i  0.04 14 87 0   0   33   11  2% 0 61477 15360 99%
c i  0.04 14 88 0   0   36   12  2% 0 61476 15359 99%
c i  0.04 14 89 0   0   39   13  2% 0 61475 15358 99%
c i  0.04 14 91 0   0   42   14  2% 0 61474 15357 99%
c i  0.04 14 93 0   0   45   15  2% 0 61473 15356 99%
c i  0.04 14 94 0   0   48   16  2% 0 61472 15355 99%
c i  0.04 14 96 0   0   51   17  2% 0 61471 15354 99%
c i  0.04 14 98 0   0   54   18  2% 0 61470 15353 99%
c 
c  seconds  reductions  redundant  irredundant
c         MB    restarts       trail      variables
c          level   conflicts       glue        remaining
c 
c i  0.04 14 99 0   0   57   19  2% 0 61469 15352 99%
c i  0.04 14 101 0   0   60   20  2% 0 61468 15351 99%
c i  0.04 14 102 0   0   63   21  2% 0 61467 15350 99%
c i  0.04 14 104 0   0   66   22  2% 0 61466 15349 99%
c i  0.04 14 107 0   0   69   23  2% 0 61465 15348 99%
c i  0.04 14 109 0   0   72   24  2% 0 61464 15347 99%
c i  0.04 14 111 0   0   75   25  2% 0 61463 15346 99%
c i  0.04 14 113 0   0   78   26  2% 0 61462 15345 99%
c i  0.04 14 116 0   0   81   27  2% 0 61461 15344 99%
c i  0.04 14 118 0   0   84   28  2% 0 61460 15343 99%
c i  0.04 14 119 0   0   87   29  2% 0 61459 15342 99%
c i  0.04 14 121 0   0   90   30  2% 0 61458 15341 99%
c i  0.04 14 118 0   0   95   31  2% 1 61456 15339 99%
c -  0.08 14 87 1  34  300  103  3% 1 61045 15339 99%
c u  0.09 14 87 1  34  300  101  3% 1 61045 15335 99%
c v  0.09 14 87 1  34  300   99  3% 1 61045 15331 99%
c t  0.12 15 87 1  34  300   66  3% 1 61015 15330 99%
c i  0.20 15 154 1  99  498  133  4% 1 60950 15328 99%
c i  0.20 15 155 1  99  501  134  4% 1 60949 15325 99%
c i  0.29 15 209 1 162  855  330  5% 1 60852 15321 99%
c 
c  seconds   reductions  redundant  irredundant
c         MB     restarts       trail      variables
c           level   conflicts       glue        remaining
c 
c i  0.30 15 211 1 165  870  341  6% 1 60850 15313 99%
c i  0.30 15 211 1 166  871  341  5% 1 60850 15305 99%
c i  0.30 15 211 1 166  872  341  5% 1 60850 15297 99%
c i  0.30 15 210 1 166  873  341  5% 1 60850 15280 99%
c -  0.32 17 214 2 166  903  323  6% 1 60637 15280 99%
c i  0.32 17 221 2 171  968  357  6% 1 60617 15251 99%
c i  0.32 17 221 2 171  969  357  6% 1 60617 15219 98%
c i  0.32 17 220 2 171  970  357  6% 1 60617 15187 98%
c i  0.32 17 220 2 171  971  357  6% 1 60617 15138 98%
c i  0.32 17 220 2 171  972  357  6% 1 60617 15135 98%
c i  0.33 17 220 2 171  977  358  6% 1 60615 15133 98%
c }  0.33 17 223 2 171 1001  370  6% 1 60607 15133 98%
c [  0.33 17  0 2 171 1001  370  0% 0 60607 15133 98%
c O  0.33 17 36 2 171 1003  370 45% 0 60606 15133 98%
c i  0.34 17 79 2 171 1118  428 63% 3 60582 15117 98%
c i  0.35 17 84 2 171 1183  472 63% 4 60574 15093 98%
c -  0.45 17 99 3 171 1803  690 32% 8 59846 15093 98%
c i  0.65 17 83 3 172 2427 1162 35% 8 59787 15078 97%
c i  0.65 17 83 3 172 2428 1162 35% 8 59787 15072 97%
c i  0.65 17 83 3 172 2429 1162 35% 8 59787 15062 97%
c 
c  seconds  reductions  redundant  irredundant
c         MB    restarts       trail      variables
c          level   conflicts       glue        remaining
c 
c i  0.66 17 83 3 172 2430 1162 35% 8 59787 15046 97%
c i  0.66 17 84 3 172 2432 1162 35% 8 59787 15040 97%
c ]  0.84 17 73 3 172 3001 1594 40% 10 59746 15040 97%
c {  0.84 17 223 3 172 3001 1594  6% 1 59746 15040 97%
c i  0.84 17 222 3 172 3002 1594  6% 1 59746 15034 97%
c F  0.84 17 222 3 172 3004 1594  6% 1 59745 15034 97%
c -  0.86 17 222 4 172 3004 1465  6% 1 59559 15034 97%
c i  0.89 17 241 4 181 3300 1572  7% 1 59478 15032 97%
c i  0.89 17 240 4 181 3303 1573  7% 1 59477 15030 97%
c i  1.00 17 339 4 206 3813 1762 10% 2 59328 15026 97%
c i  1.00 17 339 4 206 3815 1763 10% 2 59328 15021 97%
c i  1.00 17 339 4 206 3816 1763 10% 1 59328 15019 97%
c s  1.14 19 377 4 237 4001 1775 11% 2 59140 15019 97%
c t  1.16 19 377 4 237 4001 1687 11% 2 59135 14869 96%
c e  1.35 20 377 4 237 4001  373 11% 2 40284 7061 46%
c s  1.37 21 377 4 237 4001  339 11% 2 37074 7061 46%
c e  1.46 21 377 4 237 4001  264 11% 2 35978 5894 38%
c i  1.49 18 376 4 239 4010  209  9% 2 35978 5893 38%
c i  1.49 18 375 4 239 4012  210  7% 2 35978 5892 38%
c i  1.49 18 373 4 242 4022  218  4% 2 35978 5890 38%
c 
c  seconds   reductions  redundant  irredundant
c         MB     restarts       trail     variables
c           level   conflicts       glue       remaining
c 
c i  1.49 18 371 4 245 4029  224  3% 2 35978 5889 38%
c -  1.58 18 287 5 371 4504  663 33% 2 35938 5889 38%
c u  1.60 18 287 5 371 4504  652 33% 2 35938 5889 38%
c v  1.61 18 287 5 371 4504  636 33% 2 35938 5889 38%
c t  1.64 18 287 5 371 4504  632 33% 2 35729 5889 38%
c d  1.72 18 232 5 497 5001 1107 33% 3 35712 5884 38%
c 3  1.73 18 232 5 497 5001 4106 33% 3 35710 5884 38%
c 3  1.74 18 232 5 497 5001 4858 33% 3 35710 5884 38%
c p  1.88 22 232 5 497 5001 117740 33% 3 35710 5873 38%
c i  1.96 23 194 5 634 5517 118218 34% 3 35710 5872 38%
c i  1.96 23 194 5 635 5518 118218 34% 3 35710 5871 38%
c #  2.02 23 168 5 749 6004 118667 34% 4 35710 5871 38%
c -  2.09 24 156 6 825 6304 4067 35% 4 35621 5871 38%
c }  2.18 24 133 6 976 7002 4715 37% 4 35621 5871 38%
c [  2.18 24 73 6 976 7002 4715 106% 10 35621 5871 38%
c -  2.47 25 45 7 977 8405 3773 95% 9 35621 5871 38%
c ]  2.48 25 45 7 977 8418 3781 95% 9 35621 5871 38%
c 1  2.48 25 45 7 977 8418 3781 95% 9 35621 5871 38%
c 
c --- [ result ] -------------------------------------------------------------
c 
s SATISFIABLE
c 
c --- [ run-time profiling ] -------------------------------------------------
c 
c process time taken by individual solving procedures
c (percentage relative to process time for solving)
c 
c         1.84   75.27% search
c         1.02   41.81% unstable
c         0.83   33.76% propagate
c         0.81   33.20% stable
c         0.61   24.72% simplify
c         0.53   21.67% analyze
c         0.27   11.18% elim
c         0.20    7.99% shrink
c         0.19    7.62% decide
c         0.13    5.35% probe
c         0.10    4.08% bump
c         0.09    3.67% collect
c         0.09    3.66% vivify
c         0.08    3.38% reduce
c         0.05    2.06% subsume
c         0.05    2.04% connect
c         0.04    1.83% backward
c         0.04    1.81% minimize
c         0.03    1.40% parse
c         0.03    1.11% compact
c         0.02    0.96% ternary
c         0.02    0.89% decompose
c         0.02    0.74% restart
c         0.02    0.65% copy
c         0.01    0.60% transred
c         0.01    0.26% lucky
c         0.00    0.03% deduplicate
c   =================================
c         2.44   98.61% solve
c 
c last line shows process time for solving
c (percentage relative to total process time)
c 
c --- [ statistics ] ---------------------------------------------------------
c 
c chronological:              3179        37.76 %  of conflicts
c conflicts:                  8418      3443.30    per second
c decisions:                122987     50306.60    per second
c eliminated:                 7761        50.14 %  of all variables
c fixed:                      1842        11.90 %  of all variables
c learned:                    7001        83.17 %  per conflict
c learned_lits:             347500       100.00 %  learned literals
c minimized:                     0         0.00 %  learned literals
c shrunken:                 203363        58.52 %  learned literals
c minishrunken:              34309         9.87 %  learned literals
c otfs:                       2310        27.44 %  of conflict
c propagations:            5652318         2.31 M  per second
c reduced:                     651         7.73 %  per conflict
c rephased:                      3      2806.00    interval
c restarts:                    977         8.62    interval
c stabilizing:                   2        37.54 %  of conflicts
c substituted:                   5         0.03 %  of all variables
c subsumed:                  13787         2.64 %  of all clauses
c strengthened:              24236         4.64 %  of all clauses
c ternary:                    3769         1.46 %  of resolved
c trail reuses:                  0         0.00 %  of incremental calls
c vivified:                    273         0.05 %  of all clauses
c weakened:                  26934         2.78    average size
c 
c seconds are measured in process time for solving
c 
c --- [ resources ] ----------------------------------------------------------
c 
c total process time since initialization:         2.48    seconds
c total real time since initialization:            2.48    seconds
c maximum resident set size of process:           24.61    MB
c 
c --- [ shutting down ] ------------------------------------------------------
c 
c exit 10
c array.sh: end:      Fri 24 Nov 2023 02:37:42 PM CET
